benchmarks_vrp/CMT1/tsp_classic/CMT1_0.vrp
NAME: CMT1_0
TYPE: CVRP
COMMENT: 524.61 - Cluster Nr.0
DIMENSION: 10
CAPACITY: 160
EDGE_WEIGHT_TYPE: EUC_2D
NODE_COORD_TYPE: TWOD_COORDS
NODE_COORD_SECTION: 
1 13 13
2 10 17
4 30 40
5 5 25
7 30 15
3 20 26
6 27 23
8 17 33
9 5 6
10 21 10
DEPOT_SECTION: 
4
-1
DEMAND_SECTION: 
1 9
10 13
3 9
4 0
5 23
8 41
7 16
6 3
9 7
2 27
EOF
