benchmarks_vrp/CMT1/tsp_classic/CMT1_0.tour
NAME: CMT1_0 solution
TYPE: TOUR
TOUR_SECTION:
4 3 6 7 10 9 1 2 5 8 -1
-1
EOF